NAME : morphed18-2-1
COMMENT : Generated using the function morphInstances from the R-package netgen (Bossek,2015) - Number of clusters: 2 Alpha: 0.5
TYPE : TSP
DIMENSION : 18
EDGE_WEIGHT_TYPE : EUC_2D
NODE_COORD_SECTION
1 28.3982100264 29.8604999932
2 53.771234444 72.1635355325
3 64.6173717411 80.4632521387
4 70.3498666875 15.7955985785
5 31.3894778284 39.7285524016
6 76.4529990045 9.1388543196
7 89.2480966284 48.1688641827
8 57.1033243158 24.7183268634
9 54.076413656 5.2459421731
10 15.5073137649 20.0617804612
11 41.9756859073 79.6284263665
12 26.5038469535 22.6627976427
13 69.4363901981 56.6472088903
14 51.3657557759 61.5645548369
15 79.4978517911 58.869600669
16 47.885059271 15.3855541153
17 75.7992135299 82.0409511781
18 93.7386493081 71.6733726066
EOF
